32      4       
10      10      10      10      
0       0       0       0       0       2       2       4       
9       0       1       1       1       2       3       5       
5       0       2       3       2       3       6       7       8       
7       0       4       2       2       5       6       8       13      14      24      
8       0       6       5       5       7       7       11      16      17      18      21      26      
5       1       5       5       0       14      9       10      11      12      15      16      17      18      19      20      21      22      23      26      
3       8       3       0       6       11      9       10      12      13      14      15      19      20      22      23      24      
7       0       2       6       4       10      9       10      11      15      16      17      18      22      23      26      
1       5       0       4       2       3       25      27      31      
5       6       0       5       4       3       25      27      31      
8       3       6       3       0       3       25      27      31      
9       3       0       5       7       3       25      27      31      
1       0       2       2       5       3       25      27      31      
5       4       2       0       4       4       27      29      30      31      
10      4       3       5       0       2       25      27      
6       6       4       2       0       2       25      27      
4       3       6       5       0       2       25      27      
9       5       4       5       0       2       25      27      
10      0       2       5       9       2       25      31      
9       5       8       5       0       2       25      27      
10      1       6       6       0       2       25      27      
9       5       4       0       2       4       28      29      30      31      
8       0       6       5       3       3       27      29      31      
4       0       3       3       2       3       27      29      30      
8       0       5       4       9       3       28      29      30      
8       2       0       1       2       3       28      29      31      
1       3       0       5       5       1       28      
4       2       3       0       3       1       32      
1       0       3       6       3       1       32      
2       6       3       4       0       1       32      
8       4       7       2       0       1       32      
0       0       0       0       0       0       
